c random assignment satisfied 192/430 clauses
o 238
c flipped 0/100 variables (k=0)
c solution improved by 1 clause
o 237
c flipped 0/100 variables (k=0)
c solution improved by 18 clauses
o 219
c flipped 0/100 variables (k=0)
c solution improved by 9 clauses
o 210
c flipped 0/100 variables (k=0)
c solution improved by 1 clause
o 209
c flipped 0/100 variables (k=0)
c solution improved by 1 clause
o 208
c flipped 0/100 variables (k=0)
c solution improved by 32 clauses
o 176
c flipped 0/100 variables (k=0)
c solution improved by 4 clauses
o 172
c flipped 0/100 variables (k=0)
c solution improved by 1 clause
o 171
c flipped 0/100 variables (k=0)
c solution improved by 2 clauses
o 169
c flipped 0/100 variables (k=0)
c solution improved by 8 clauses
o 161
c flipped 0/100 variables (k=0)
c solution improved by 23 clauses
o 138
c flipped 0/100 variables (k=0)
c solution improved by 8 clauses
o 130
c flipped 0/100 variables (k=0)
c solution improved by 1 clause
o 129
c flipped 0/100 variables (k=0)
c solution improved by 1 clause
o 128
c flipped 0/100 variables (k=0)
c solution improved by 1 clause
o 127
c flipped 0/100 variables (k=0)
c solution improved by 1 clause
o 126
c flipped 0/100 variables (k=0)
c solution improved by 8 clauses
o 118
c flipped 0/100 variables (k=0)
c solution improved by 25 clauses
o 93
c flipped 0/100 variables (k=0)
c solution improved by 1 clause
o 92
c flipped 0/100 variables (k=0)
c solution improved by 1 clause
o 91
c flipped 0/100 variables (k=0)
c solution improved by 1 clause
o 90
c flipped 0/100 variables (k=0)
c solution improved by 3 clauses
o 87
c flipped 0/100 variables (k=0)
c solution improved by 1 clause
o 86
c flipped 0/100 variables (k=0)
c solution improved by 3 clauses
o 83
c flipped 0/100 variables (k=0)
c solution improved by 1 clause
o 82
c flipped 0/100 variables (k=0)
c solution improved by 16 clauses
o 66
c flipped 0/100 variables (k=0)
c solution improved by 1 clause
o 65
c flipped 0/100 variables (k=0)
c solution improved by 1 clause
o 64
c flipped 0/100 variables (k=0)
c solution improved by 1 clause
o 63
c flipped 0/100 variables (k=0)
c solution improved by 1 clause
o 62
c flipped 0/100 variables (k=0)
c solution improved by 1 clause
o 61
c flipped 0/100 variables (k=0)
c solution improved by 1 clause
o 60
c flipped 0/100 variables (k=0)
c solution improved by 1 clause
o 59
c flipped 0/100 variables (k=0)
c solution improved by 1 clause
o 58
c flipped 0/100 variables (k=0)
c solution improved by 1 clause
o 57
c flipped 0/100 variables (k=0)
c solution improved by 5 clauses
o 52
c flipped 0/100 variables (k=0)
c solution improved by 2 clauses
o 50
v 0111011111000110010010111100101001001000111101101001010110010110010101110001110010011111110100000011
c stuck at 380/430 clauses with k=0
s UNKNOWN
